NAME : cgl_70b.6582.tour
COMMENT : Length = 6582
COMMENT : Found by LKH-3 [Keld Helsgaun] Fri Nov  8 19:20:30 2024
TYPE : TOUR
DIMENSION : 70
TOUR_SECTION
14
25
48
10
12
24
31
13
11
32
34
33
42
41
36
35
40
43
37
44
45
5
57
55
56
58
59
60
61
3
63
2
65
66
64
67
69
68
70
1
62
4
54
21
22
15
8
23
53
9
50
7
49
27
29
28
39
47
51
17
46
38
19
26
20
6
16
18
52
30
-1
EOF
